62
150
105	3
104	1
102	3
101	1
100	1
98	1
97	1
96	1
95	1
94	2
93	2
92	3
91	1
90	1
88	2
87	1
86	2
85	1
83	1
82	1
81	1
80	2
79	2
77	1
76	3
75	1
74	1
73	1
72	1
69	1
68	1
66	1
65	2
64	2
63	2
62	2
61	1
59	1
57	1
56	1
55	1
49	4
46	2
45	4
44	1
41	1
37	2
36	1
35	3
34	3
32	1
31	2
30	1
29	1
28	1
27	2
26	2
25	2
24	4
20	1
19	2
16	1
